benchmarks/or-tools/instances/kakuroext_easy/kakuro-easy_078_ext.ozn
output ["V0 = ",show(V0),"\n","V1 = ",show(V1),"\n","V2 = ",show(V2),"\n","V3 = ",show(V3),"\n","V4 = ",show(V4),"\n","V5 = ",show(V5),"\n","V6 = ",show(V6),"\n","V7 = ",show(V7),"\n","V8 = ",show(V8),"\n","V9 = ",show(V9),"\n","V10 = ",show(V10),"\n","V11 = ",show(V11),"\n","V12 = ",show(V12),"\n","V13 = ",show(V13),"\n","V14 = ",show(V14),"\n","V15 = ",show(V15),"\n","V16 = ",show(V16),"\n","V17 = ",show(V17),"\n","V18 = ",show(V18),"\n","V19 = ",show(V19),"\n","V20 = ",show(V20),"\n","V21 = ",show(V21),"\n","V22 = ",show(V22),"\n","V23 = ",show(V23),"\n","V24 = ",show(V24),"\n","V25 = ",show(V25),"\n","V26 = ",show(V26),"\n","V27 = ",show(V27),"\n","V28 = ",show(V28),"\n","V29 = ",show(V29),"\n","V30 = ",show(V30),"\n","V31 = ",show(V31),"\n","V32 = ",show(V32),"\n","V33 = ",show(V33),"\n","V34 = ",show(V34),"\n","V35 = ",show(V35),"\n","V36 = ",show(V36),"\n","V37 = ",show(V37),"\n","V38 = ",show(V38),"\n","V39 = ",show(V39),"\n","V40 = ",show(V40),"\n","V41 = ",show(V41),"\n","V42 = ",show(V42),"\n","V43 = ",show(V43),"\n","V44 = ",show(V44),"\n","V45 = ",show(V45),"\n","V46 = ",show(V46),"\n","V47 = ",show(V47),"\n","V48 = ",show(V48),"\n","V49 = ",show(V49),"\n","V50 = ",show(V50),"\n","V51 = ",show(V51),"\n","V52 = ",show(V52),"\n","V53 = ",show(V53),"\n","V54 = ",show(V54),"\n","V55 = ",show(V55),"\n","V56 = ",show(V56),"\n","V57 = ",show(V57),"\n","V58 = ",show(V58),"\n","V59 = ",show(V59),"\n","V60 = ",show(V60),"\n","V61 = ",show(V61),"\n","V62 = ",show(V62),"\n","V63 = ",show(V63),"\n","V64 = ",show(V64),"\n","V65 = ",show(V65),"\n","V66 = ",show(V66),"\n","V67 = ",show(V67),"\n","V68 = ",show(V68),"\n","V69 = ",show(V69),"\n","V70 = ",show(V70),"\n","V71 = ",show(V71),"\n","V72 = ",show(V72),"\n","V73 = ",show(V73),"\n","V74 = ",show(V74),"\n","V75 = ",show(V75),"\n","V76 = ",show(V76),"\n","V77 = ",show(V77),"\n","V78 = ",show(V78),"\n","V79 = ",show(V79),"\n","V80 = ",show(V80),"\n","V81 = ",show(V81),"\n","V82 = ",show(V82),"\n","V83 = ",show(V83),"\n","V84 = ",show(V84),"\n","V85 = ",show(V85),"\n","V86 = ",show(V86),"\n","V87 = ",show(V87),"\n","V88 = ",show(V88),"\n","V89 = ",show(V89),"\n","V90 = ",show(V90),"\n","V91 = ",show(V91),"\n","V92 = ",show(V92),"\n","V93 = ",show(V93),"\n","V94 = ",show(V94),"\n","V95 = ",show(V95),"\n","V96 = ",show(V96),"\n","V97 = ",show(V97),"\n","V98 = ",show(V98),"\n","V99 = ",show(V99),"\n","V100 = ",show(V100),"\n","V101 = ",show(V101),"\n","V102 = ",show(V102),"\n","V103 = ",show(V103),"\n","V104 = ",show(V104),"\n","V105 = ",show(V105),"\n","V106 = ",show(V106),"\n","V107 = ",show(V107),"\n","V108 = ",show(V108),"\n","V109 = ",show(V109),"\n","V110 = ",show(V110),"\n","V111 = ",show(V111),"\n","V112 = ",show(V112),"\n","V113 = ",show(V113),"\n","V114 = ",show(V114),"\n","V115 = ",show(V115),"\n","V116 = ",show(V116),"\n","V117 = ",show(V117),"\n","V118 = ",show(V118),"\n","V119 = ",show(V119),"\n","V120 = ",show(V120),"\n","V121 = ",show(V121),"\n","V122 = ",show(V122),"\n","V123 = ",show(V123),"\n","V124 = ",show(V124),"\n","V125 = ",show(V125),"\n","V126 = ",show(V126),"\n","V127 = ",show(V127),"\n","V128 = ",show(V128),"\n","V129 = ",show(V129),"\n","V130 = ",show(V130),"\n","V131 = ",show(V131),"\n","V132 = ",show(V132),"\n","V133 = ",show(V133),"\n","V134 = ",show(V134),"\n","V135 = ",show(V135),"\n","V136 = ",show(V136),"\n","V137 = ",show(V137),"\n","V138 = ",show(V138),"\n","V139 = ",show(V139),"\n","V140 = ",show(V140),"\n","V141 = ",show(V141),"\n","V142 = ",show(V142),"\n","V143 = ",show(V143),"\n","V144 = ",show(V144),"\n","V145 = ",show(V145),"\n"];
int: V0;
int: V1;
int: V2;
int: V3;
int: V4;
int: V5;
int: V6;
int: V7;
int: V8;
int: V9;
int: V10;
int: V11;
int: V12;
int: V13;
int: V14;
int: V15;
int: V16;
int: V17;
int: V18;
int: V19;
int: V20;
int: V21;
int: V22;
int: V23;
int: V24;
int: V25;
int: V26;
int: V27;
int: V28;
int: V29;
int: V30;
int: V31;
int: V32;
int: V33;
int: V34;
int: V35;
int: V36;
int: V37;
int: V38;
int: V39;
int: V40;
int: V41;
int: V42;
int: V43;
int: V44;
int: V45;
int: V46;
int: V47;
int: V48;
int: V49;
int: V50;
int: V51;
int: V52;
int: V53;
int: V54;
int: V55;
int: V56;
int: V57;
int: V58;
int: V59;
int: V60;
int: V61;
int: V62;
int: V63;
int: V64;
int: V65;
int: V66;
int: V67;
int: V68;
int: V69;
int: V70;
int: V71;
int: V72;
int: V73;
int: V74;
int: V75;
int: V76;
int: V77;
int: V78;
int: V79;
int: V80;
int: V81;
int: V82;
int: V83;
int: V84;
int: V85;
int: V86;
int: V87;
int: V88;
int: V89;
int: V90;
int: V91;
int: V92;
int: V93;
int: V94;
int: V95;
int: V96;
int: V97;
int: V98;
int: V99;
int: V100;
int: V101;
int: V102;
int: V103;
int: V104;
int: V105;
int: V106;
int: V107;
int: V108;
int: V109;
int: V110;
int: V111;
int: V112;
int: V113;
int: V114;
int: V115;
int: V116;
int: V117;
int: V118;
int: V119;
int: V120;
int: V121;
int: V122;
int: V123;
int: V124;
int: V125;
int: V126;
int: V127;
int: V128;
int: V129;
int: V130;
int: V131;
int: V132;
int: V133;
int: V134;
int: V135;
int: V136;
int: V137;
int: V138;
int: V139;
int: V140;
int: V141;
int: V142;
int: V143;
int: V144;
int: V145;
