benchmarks/or-tools/instances/kakuroext_easy/kakuro-easy_078_ext.res
REGULAR
REGULAR
REGULAR
REGULAR
REGULAR
REGULAR
REGULAR
REGULAR
REGULAR
REGULAR
REGULAR
REGULAR
REGULAR
REGULAR
REGULAR
REGULAR
REGULAR
REGULAR
REGULAR
REGULAR
REGULAR
REGULAR
REGULAR
REGULAR
REGULAR
REGULAR
REGULAR
REGULAR
REGULAR
REGULAR
REGULAR
REGULAR
REGULAR
REGULAR
REGULAR
REGULAR
REGULAR
REGULAR
REGULAR
REGULAR
REGULAR
REGULAR
REGULAR
REGULAR
REGULAR
REGULAR
REGULAR
REGULAR
REGULAR
REGULAR
REGULAR
REGULAR
REGULAR
REGULAR
REGULAR
REGULAR
REGULAR
REGULAR
REGULAR
REGULAR
REGULAR
REGULAR
REGULAR
REGULAR
REGULAR
REGULAR
REGULAR
REGULAR
REGULAR
REGULAR
REGULAR
REGULAR
REGULAR
REGULAR
REGULAR
REGULAR
REGULAR
REGULAR
REGULAR
REGULAR
REGULAR
REGULAR
REGULAR
REGULAR
REGULAR
REGULAR
REGULAR
REGULAR
REGULAR
REGULAR
REGULAR
REGULAR
REGULAR
REGULAR
REGULAR
REGULAR
REGULAR
REGULAR
REGULAR
REGULAR
REGULAR
REGULAR
REGULAR
REGULAR
V0 = 3;
V1 = 9;
V10 = 5;
V100 = 9;
V101 = 5;
V102 = 4;
V103 = 6;
V104 = 3;
V105 = 9;
V106 = 7;
V107 = 8;
V108 = 9;
V109 = 8;
V11 = 2;
V110 = 9;
V111 = 8;
V112 = 1;
V113 = 3;
V114 = 9;
V115 = 7;
V116 = 5;
V117 = 7;
V118 = 2;
V119 = 6;
V12 = 4;
V120 = 1;
V121 = 6;
V122 = 1;
V123 = 2;
V124 = 8;
V125 = 7;
V126 = 9;
V127 = 6;
V128 = 2;
V129 = 5;
V13 = 3;
V130 = 3;
V131 = 4;
V132 = 1;
V133 = 9;
V134 = 8;
V135 = 3;
V136 = 2;
V137 = 1;
V138 = 8;
V139 = 9;
V14 = 4;
V140 = 1;
V141 = 2;
V142 = 1;
V143 = 3;
V144 = 1;
V145 = 3;
V15 = 1;
V16 = 5;
V17 = 2;
V18 = 8;
V19 = 7;
V2 = 1;
V20 = 9;
V21 = 5;
V22 = 1;
V23 = 2;
V24 = 4;
V25 = 7;
V26 = 3;
V27 = 5;
V28 = 1;
V29 = 2;
V3 = 3;
V30 = 8;
V31 = 9;
V32 = 7;
V33 = 8;
V34 = 9;
V35 = 2;
V36 = 9;
V37 = 9;
V38 = 7;
V39 = 8;
V4 = 1;
V40 = 2;
V41 = 9;
V42 = 8;
V43 = 9;
V44 = 3;
V45 = 5;
V46 = 2;
V47 = 7;
V48 = 6;
V49 = 1;
V5 = 2;
V50 = 8;
V51 = 3;
V52 = 1;
V53 = 1;
V54 = 2;
V55 = 9;
V56 = 6;
V57 = 8;
V58 = 7;
V59 = 9;
V6 = 3;
V60 = 2;
V61 = 9;
V62 = 7;
V63 = 9;
V64 = 5;
V65 = 1;
V66 = 7;
V67 = 9;
V68 = 1;
V69 = 3;
V7 = 1;
V70 = 4;
V71 = 2;
V72 = 1;
V73 = 8;
V74 = 9;
V75 = 7;
V76 = 7;
V77 = 9;
V78 = 2;
V79 = 1;
V8 = 1;
V80 = 6;
V81 = 8;
V82 = 7;
V83 = 9;
V84 = 9;
V85 = 8;
V86 = 3;
V87 = 1;
V88 = 6;
V89 = 9;
V9 = 3;
V90 = 8;
V91 = 7;
V92 = 9;
V93 = 9;
V94 = 7;
V95 = 2;
V96 = 7;
V97 = 9;
V98 = 7;
V99 = 8;
----------

%%  runtime:       0.069 (69.629 ms)
%%  solvetime:     0.000 (0.609 ms)
%%  solutions:     1
%%  variables:     146
%%  propagators:   0
%%  propagations:  130
%%  nodes:         1
%%  failures:      0
%%  restarts:      0
%%  peak depth:    0

GECODE TUPLESET
GECODE TUPLESET
GECODE TUPLESET
GECODE TUPLESET
GECODE TUPLESET
GECODE TUPLESET
GECODE TUPLESET
GECODE TUPLESET
GECODE TUPLESET
GECODE TUPLESET
GECODE TUPLESET
GECODE TUPLESET
GECODE TUPLESET
GECODE TUPLESET
GECODE TUPLESET
GECODE TUPLESET
GECODE TUPLESET
GECODE TUPLESET
GECODE TUPLESET
GECODE TUPLESET
GECODE TUPLESET
GECODE TUPLESET
GECODE TUPLESET
GECODE TUPLESET
GECODE TUPLESET
GECODE TUPLESET
GECODE TUPLESET
GECODE TUPLESET
GECODE TUPLESET
GECODE TUPLESET
GECODE TUPLESET
GECODE TUPLESET
GECODE TUPLESET
GECODE TUPLESET
GECODE TUPLESET
GECODE TUPLESET
GECODE TUPLESET
GECODE TUPLESET
GECODE TUPLESET
GECODE TUPLESET
GECODE TUPLESET
GECODE TUPLESET
GECODE TUPLESET
GECODE TUPLESET
GECODE TUPLESET
GECODE TUPLESET
GECODE TUPLESET
GECODE TUPLESET
GECODE TUPLESET
GECODE TUPLESET
GECODE TUPLESET
GECODE TUPLESET
GECODE TUPLESET
GECODE TUPLESET
GECODE TUPLESET
GECODE TUPLESET
GECODE TUPLESET
GECODE TUPLESET
GECODE TUPLESET
GECODE TUPLESET
GECODE TUPLESET
GECODE TUPLESET
GECODE TUPLESET
GECODE TUPLESET
GECODE TUPLESET
GECODE TUPLESET
GECODE TUPLESET
GECODE TUPLESET
GECODE TUPLESET
GECODE TUPLESET
GECODE TUPLESET
GECODE TUPLESET
GECODE TUPLESET
GECODE TUPLESET
GECODE TUPLESET
GECODE TUPLESET
GECODE TUPLESET
GECODE TUPLESET
GECODE TUPLESET
GECODE TUPLESET
GECODE TUPLESET
GECODE TUPLESET
GECODE TUPLESET
GECODE TUPLESET
GECODE TUPLESET
GECODE TUPLESET
GECODE TUPLESET
GECODE TUPLESET
GECODE TUPLESET
GECODE TUPLESET
GECODE TUPLESET
GECODE TUPLESET
GECODE TUPLESET
GECODE TUPLESET
GECODE TUPLESET
GECODE TUPLESET
GECODE TUPLESET
GECODE TUPLESET
GECODE TUPLESET
GECODE TUPLESET
GECODE TUPLESET
GECODE TUPLESET
GECODE TUPLESET
GECODE TUPLESET
V0 = 3;
V1 = 9;
V10 = 5;
V100 = 9;
V101 = 5;
V102 = 4;
V103 = 6;
V104 = 3;
V105 = 9;
V106 = 7;
V107 = 8;
V108 = 9;
V109 = 8;
V11 = 2;
V110 = 9;
V111 = 8;
V112 = 1;
V113 = 3;
V114 = 9;
V115 = 7;
V116 = 5;
V117 = 7;
V118 = 2;
V119 = 6;
V12 = 4;
V120 = 1;
V121 = 6;
V122 = 1;
V123 = 2;
V124 = 8;
V125 = 7;
V126 = 9;
V127 = 6;
V128 = 2;
V129 = 5;
V13 = 3;
V130 = 3;
V131 = 4;
V132 = 1;
V133 = 9;
V134 = 8;
V135 = 3;
V136 = 2;
V137 = 1;
V138 = 8;
V139 = 9;
V14 = 4;
V140 = 1;
V141 = 2;
V142 = 1;
V143 = 3;
V144 = 1;
V145 = 3;
V15 = 1;
V16 = 5;
V17 = 2;
V18 = 8;
V19 = 7;
V2 = 1;
V20 = 9;
V21 = 5;
V22 = 1;
V23 = 2;
V24 = 4;
V25 = 7;
V26 = 3;
V27 = 5;
V28 = 1;
V29 = 2;
V3 = 3;
V30 = 8;
V31 = 9;
V32 = 7;
V33 = 8;
V34 = 9;
V35 = 2;
V36 = 9;
V37 = 9;
V38 = 7;
V39 = 8;
V4 = 1;
V40 = 2;
V41 = 9;
V42 = 8;
V43 = 9;
V44 = 3;
V45 = 5;
V46 = 2;
V47 = 7;
V48 = 6;
V49 = 1;
V5 = 2;
V50 = 8;
V51 = 3;
V52 = 1;
V53 = 1;
V54 = 2;
V55 = 9;
V56 = 6;
V57 = 8;
V58 = 7;
V59 = 9;
V6 = 3;
V60 = 2;
V61 = 9;
V62 = 7;
V63 = 9;
V64 = 5;
V65 = 1;
V66 = 7;
V67 = 9;
V68 = 1;
V69 = 3;
V7 = 1;
V70 = 4;
V71 = 2;
V72 = 1;
V73 = 8;
V74 = 9;
V75 = 7;
V76 = 7;
V77 = 9;
V78 = 2;
V79 = 1;
V8 = 1;
V80 = 6;
V81 = 8;
V82 = 7;
V83 = 9;
V84 = 9;
V85 = 8;
V86 = 3;
V87 = 1;
V88 = 6;
V89 = 9;
V9 = 3;
V90 = 8;
V91 = 7;
V92 = 9;
V93 = 9;
V94 = 7;
V95 = 2;
V96 = 7;
V97 = 9;
V98 = 7;
V99 = 8;
----------

%%  runtime:       0.021 (21.887 ms)
%%  solvetime:     0.000 (0.824 ms)
%%  solutions:     1
%%  variables:     146
%%  propagators:   0
%%  propagations:  160
%%  nodes:         1
%%  failures:      0
%%  restarts:      0
%%  peak depth:    0

